letting n =  10
letting blocks =  [[1, 2], [2, 2], [2, 8], [2, 9], [2, 10], [3, 10], [4, 1], [4, 3], [4, 4], [4, 9], [5, 3], [5, 6], [5, 8], [5, 9], [6, 4], [6, 6], [6, 7], [6, 10], [7, 8], [8, 1], [8, 2], [8, 7], [9, 3], [9, 4], [9, 6], [10, 9]]
